(set-info :smt-lib-version 2.6)
(set-logic QF_UF)
(set-info :source |
Generated by: Aman Goel (amangoel@umich.edu), Karem A. Sakallah (karem@umich.edu)
Generated on: 2018-04-06

Generated by the tool Averroes 2 (successor of [1]) which implements safety property
verification on hardware systems.

This SMT problem belongs to a set of SMT problems generated by applying Averroes 2
to benchmarks derived from [2-5].

A total of 412 systems (345 from [2], 19 from [3], 26 from [4], 22 from [5]) were
syntactically converted from their original formats (using [6, 7]), and given to 
Averroes 2 to perform property checking with abstraction (wide bit-vectors -> terms, 
wide operators -> UF) using SMT solvers [8, 9].

[1] Lee S., Sakallah K.A. (2014) Unbounded Scalable Verification Based on Approximate
Property-Directed Reachability and Datapath Abstraction. In: Biere A., Bloem R. (eds)
Computer Aided Verification. CAV 2014. Lecture Notes in Computer Science, vol 8559.
Springer, Cham
[2] http://fmv.jku.at/aiger/index.html#beem
[3] http://www.cs.cmu.edu/~modelcheck/vcegar
[4] http://www.cprover.org/hardware/v2c
[5] http://github.com/aman-goel/verilogbench
[6] http://www.clifford.at/yosys
[7] http://github.com/chengyinwu/V3
[8] http://github.com/Z3Prover/z3
[9] http://github.com/SRI-CSL/yices2

id: eq_sdp_v7
query-maker: "Yices 2"
query-time: 1.791000 ms
query-class: abstract
query-category: oneshot
query-type: cti
status: unsat
|)
(set-info :license "https://creativecommons.org/licenses/by/4.0/")
(set-info :category "industrial")

;
(set-info :status unsat)
(declare-sort utt$8 0)
(declare-fun Add_8_8_8 (utt$8 utt$8 ) utt$8)
(declare-fun BitWiseAnd_8_8_8 (utt$8 utt$8 ) utt$8)
(declare-fun Extract_1_0_0_8 (utt$8 ) Bool)
(declare-fun Sub_8_8_8 (utt$8 utt$8 ) utt$8)
(declare-fun y$1 () Bool)
(declare-fun y$10 () Bool)
(declare-fun y$101 () Bool)
(declare-fun y$103 () Bool)
(declare-fun y$107 () Bool)
(declare-fun y$112 () Bool)
(declare-fun y$12 () Bool)
(declare-fun y$121 () Bool)
(declare-fun y$125 () Bool)
(declare-fun y$131 () Bool)
(declare-fun y$132 () Bool)
(declare-fun y$134 () Bool)
(declare-fun y$14 () Bool)
(declare-fun y$148 () Bool)
(declare-fun y$149 () Bool)
(declare-fun y$16 () Bool)
(declare-fun y$160 () Bool)
(declare-fun y$161 () Bool)
(declare-fun y$162 () Bool)
(declare-fun y$176 () Bool)
(declare-fun y$177 () Bool)
(declare-fun y$178 () Bool)
(declare-fun y$18 () Bool)
(declare-fun y$187 () Bool)
(declare-fun y$192 () Bool)
(declare-fun y$193 () Bool)
(declare-fun y$194 () Bool)
(declare-fun y$195 () Bool)
(declare-fun y$196 () Bool)
(declare-fun y$197 () Bool)
(declare-fun y$198 () Bool)
(declare-fun y$20 () Bool)
(declare-fun y$215 () Bool)
(declare-fun y$22 () Bool)
(declare-fun y$229 () Bool)
(declare-fun y$230 () Bool)
(declare-fun y$231 () Bool)
(declare-fun y$232 () Bool)
(declare-fun y$236 () Bool)
(declare-fun y$237 () Bool)
(declare-fun y$238 () Bool)
(declare-fun y$239 () Bool)
(declare-fun y$24 () Bool)
(declare-fun y$240 () Bool)
(declare-fun y$244 () Bool)
(declare-fun y$26 () Bool)
(declare-fun y$276 () Bool)
(declare-fun y$28 () Bool)
(declare-fun y$280 () Bool)
(declare-fun y$283 () Bool)
(declare-fun y$285 () Bool)
(declare-fun y$286 () Bool)
(declare-fun y$287 () Bool)
(declare-fun y$288 () Bool)
(declare-fun y$289 () Bool)
(declare-fun y$292 () Bool)
(declare-fun y$293 () Bool)
(declare-fun y$294 () Bool)
(declare-fun y$295 () Bool)
(declare-fun y$296 () Bool)
(declare-fun y$297 () Bool)
(declare-fun y$298 () Bool)
(declare-fun y$299 () Bool)
(declare-fun y$3 () Bool)
(declare-fun y$30 () Bool)
(declare-fun y$300 () Bool)
(declare-fun y$301 () Bool)
(declare-fun y$302 () Bool)
(declare-fun y$303 () Bool)
(declare-fun y$304 () Bool)
(declare-fun y$310 () Bool)
(declare-fun y$312 () Bool)
(declare-fun y$314 () Bool)
(declare-fun y$317 () Bool)
(declare-fun y$32 () Bool)
(declare-fun y$320 () Bool)
(declare-fun y$323 () Bool)
(declare-fun y$326 () Bool)
(declare-fun y$329 () Bool)
(declare-fun y$333 () Bool)
(declare-fun y$34 () Bool)
(declare-fun y$357 () Bool)
(declare-fun y$36 () Bool)
(declare-fun y$38 () Bool)
(declare-fun y$382 () Bool)
(declare-fun y$383 () Bool)
(declare-fun y$384 () Bool)
(declare-fun y$385 () Bool)
(declare-fun y$386 () Bool)
(declare-fun y$393 () Bool)
(declare-fun y$394 () Bool)
(declare-fun y$40 () Bool)
(declare-fun y$402 () Bool)
(declare-fun y$405 () Bool)
(declare-fun y$407 () Bool)
(declare-fun y$408 () Bool)
(declare-fun y$411 () Bool)
(declare-fun y$414 () Bool)
(declare-fun y$419 () Bool)
(declare-fun y$425 () Bool)
(declare-fun y$428 () Bool)
(declare-fun y$444 () Bool)
(declare-fun y$445 () Bool)
(declare-fun y$446 () Bool)
(declare-fun y$447 () Bool)
(declare-fun y$448 () Bool)
(declare-fun y$449 () Bool)
(declare-fun y$452 () Bool)
(declare-fun y$453 () Bool)
(declare-fun y$46 () Bool)
(declare-fun y$5 () Bool)
(declare-fun y$50 () Bool)
(declare-fun y$55 () Bool)
(declare-fun y$59 () Bool)
(declare-fun y$63 () Bool)
(declare-fun y$69 () Bool)
(declare-fun y$73 () Bool)
(declare-fun y$77 () Bool)
(declare-fun y$8 () Bool)
(declare-fun y$82 () Bool)
(declare-fun y$86 () Bool)
(declare-fun y$90 () Bool)
(declare-fun y$95 () Bool)
(declare-fun y$97 () Bool)
(declare-fun y$99 () Bool)
(declare-fun y$a () utt$8)
(declare-fun y$b () utt$8)
(declare-fun y$c () utt$8)
(declare-fun y$ctl_b () Bool)
(declare-fun y$ctl_b1 () Bool)
(declare-fun y$ctl_b1$next () Bool)
(declare-fun y$ctl_b2 () Bool)
(declare-fun y$ctl_b2$next () Bool)
(declare-fun y$ctl_b2$next_rhs () Bool)
(declare-fun y$ctl_b2$next_rhs_op () Bool)
(declare-fun y$ctl_b3 () Bool)
(declare-fun y$ctl_b3$next () Bool)
(declare-fun y$ctl_b3$next_rhs () Bool)
(declare-fun y$ctl_b3$next_rhs_op () Bool)
(declare-fun y$im.p1_a () utt$8)
(declare-fun y$im.p1_a$next () utt$8)
(declare-fun y$im.p1_a$next_rhs () utt$8)
(declare-fun y$im.p1_a$next_rhs_op () utt$8)
(declare-fun y$im.p1_b () utt$8)
(declare-fun y$im.p1_b$next () utt$8)
(declare-fun y$im.p1_b$next_rhs () utt$8)
(declare-fun y$im.p1_b$next_rhs_op () utt$8)
(declare-fun y$im.p1_c () utt$8)
(declare-fun y$im.p1_c$next () utt$8)
(declare-fun y$im.p1_c$next_rhs () utt$8)
(declare-fun y$im.p1_c$next_rhs_op () utt$8)
(declare-fun y$im.p1_ctl_2 () Bool)
(declare-fun y$im.p1_ctl_2$next () Bool)
(declare-fun y$im.p1_ctl_2$next_rhs () Bool)
(declare-fun y$im.p1_ctl_2$next_rhs_op () Bool)
(declare-fun y$im.p2_c () utt$8)
(declare-fun y$im.p2_c$next () utt$8)
(declare-fun y$im.p2_c$next_rhs () utt$8)
(declare-fun y$im.p2_c$next_rhs_op () utt$8)
(declare-fun y$im.p2_ctl_2 () Bool)
(declare-fun y$im.p2_ctl_2$next () Bool)
(declare-fun y$im.p2_ctl_2$next_rhs () Bool)
(declare-fun y$im.p2_ctl_2$next_rhs_op () Bool)
(declare-fun y$im.p2_m () utt$8)
(declare-fun y$im.p2_m$next () utt$8)
(declare-fun y$im.p2_m$next_rhs () utt$8)
(declare-fun y$im.p2_m$next_rhs_op () utt$8)
(declare-fun y$im.p3_n () utt$8)
(declare-fun y$im.p3_n$next () utt$8)
(declare-fun y$im.p3_n$next_rhs () utt$8)
(declare-fun y$im.p3_n$next_rhs_op () utt$8)
(declare-fun y$im.reset () Bool)
(declare-fun y$im.reset$next () Bool)
(declare-fun y$n0s1 () Bool)
(declare-fun y$n0s8 () utt$8)
(declare-fun y$n144s8 () utt$8)
(declare-fun y$n160s8 () utt$8)
(declare-fun y$n16s8 () utt$8)
(declare-fun y$n1s8 () utt$8)
(declare-fun y$n240s8 () utt$8)
(declare-fun y$n248s8 () utt$8)
(declare-fun y$n252s8 () utt$8)
(declare-fun y$n32s8 () utt$8)
(declare-fun y$n4s8 () utt$8)
(declare-fun y$n5s8 () utt$8)
(declare-fun y$prop () Bool)
(declare-fun y$prop$next () Bool)
(declare-fun y$ra1 () utt$8)
(declare-fun y$ra1$next () utt$8)
(declare-fun y$ra2 () utt$8)
(declare-fun y$ra2$next () utt$8)
(declare-fun y$ra2$next_rhs () utt$8)
(declare-fun y$ra2$next_rhs_op () utt$8)
(declare-fun y$ra3 () utt$8)
(declare-fun y$ra3$next () utt$8)
(declare-fun y$ra3$next_rhs () utt$8)
(declare-fun y$ra3$next_rhs_op () utt$8)
(declare-fun y$rb1 () utt$8)
(declare-fun y$rb1$next () utt$8)
(declare-fun y$rb2 () utt$8)
(declare-fun y$rb2$next () utt$8)
(declare-fun y$rb2$next_rhs () utt$8)
(declare-fun y$rb2$next_rhs_op () utt$8)
(declare-fun y$rb3 () utt$8)
(declare-fun y$rb3$next () utt$8)
(declare-fun y$rb3$next_rhs () utt$8)
(declare-fun y$rb3$next_rhs_op () utt$8)
(declare-fun y$rc1 () utt$8)
(declare-fun y$rc1$next () utt$8)
(declare-fun y$rc2 () utt$8)
(declare-fun y$rc2$next () utt$8)
(declare-fun y$rc2$next_rhs () utt$8)
(declare-fun y$rc2$next_rhs_op () utt$8)
(declare-fun y$rc3 () utt$8)
(declare-fun y$rc3$next () utt$8)
(declare-fun y$rc3$next_rhs () utt$8)
(declare-fun y$rc3$next_rhs_op () utt$8)
(declare-fun y$s$21 () utt$8)
(declare-fun y$s$21_op () utt$8)
(declare-fun y$s$22 () utt$8)
(declare-fun y$s$22$next () utt$8)
(declare-fun y$s$22$next_op () utt$8)
(declare-fun y$s$22_op () utt$8)
(declare-fun y$s$25 () utt$8)
(declare-fun y$s$25_op () utt$8)
(declare-fun y$s$28 () utt$8)
(declare-fun y$s$28_op () utt$8)
(declare-fun y$s$29 () utt$8)
(declare-fun y$s$29$next () utt$8)
(declare-fun y$s$29$next_op () utt$8)
(declare-fun y$s$29_op () utt$8)
(declare-fun y$s$30 () utt$8)
(declare-fun y$s$30$next () utt$8)
(declare-fun y$s$30$next_op () utt$8)
(declare-fun y$s$30_op () utt$8)
(declare-fun y$s$31 () utt$8)
(declare-fun y$s$31$next () utt$8)
(declare-fun y$s$31$next_op () utt$8)
(declare-fun y$s$31_op () utt$8)
(declare-fun y$s$32 () utt$8)
(declare-fun y$s$32$next () utt$8)
(declare-fun y$s$32$next_op () utt$8)
(declare-fun y$s$32_op () utt$8)
(declare-fun y$s$33 () utt$8)
(declare-fun y$s$33$next () utt$8)
(declare-fun y$s$33$next_op () utt$8)
(declare-fun y$s$33_op () utt$8)
(declare-fun y$s_out () utt$8)
(declare-fun y$s_out$next () utt$8)
(declare-fun y$s_out$next_op () utt$8)
(declare-fun y$s_out_op () utt$8)
(declare-fun y$sp.m () utt$8)
(declare-fun y$sp.m$next () utt$8)
(declare-fun y$sp.m$next_op () utt$8)
(declare-fun y$sp.m_op () utt$8)
(declare-fun y$w$1 () Bool)
(declare-fun y$w$1$next () Bool)
(assert (not (= y$n0s8 y$n1s8)))
(assert (= y$134 (Extract_1_0_0_8 y$ra3)))
(assert (= y$s$31_op (Add_8_8_8 y$ra3 y$rb3)))
(assert (= y$s$33_op (Sub_8_8_8 y$ra3 y$rb3)))
(assert (= y$sp.m_op (ite y$134 y$s$31_op y$s$33_op)))
(assert (= y$s$30_op (Add_8_8_8 y$sp.m_op y$rc3)))
(assert (= y$s$32_op (Sub_8_8_8 y$sp.m_op y$rc3)))
(assert (= y$s_out_op (ite y$ctl_b3 y$s$30_op y$s$32_op)))
(assert (= y$148 (= y$im.p3_n y$s_out_op)))
(assert (= y$149 (= y$prop y$148)))
(assert (= y$rb2$next_rhs_op (ite y$im.reset y$n0s8 y$rb1)))
(assert (= y$46 (= y$rb2$next y$rb2$next_rhs_op)))
(assert (= y$rb3$next_rhs_op (ite y$im.reset y$n0s8 y$rb2)))
(assert (= y$50 (= y$rb3$next y$rb3$next_rhs_op)))
(assert (= y$im.p1_c$next_rhs_op (ite y$im.reset y$n0s8 y$c)))
(assert (= y$55 (= y$rc1$next y$im.p1_c$next_rhs_op)))
(assert (= y$rc2$next_rhs_op (ite y$im.reset y$n0s8 y$rc1)))
(assert (= y$59 (= y$rc2$next y$rc2$next_rhs_op)))
(assert (= y$rc3$next_rhs_op (ite y$im.reset y$n0s8 y$rc2)))
(assert (= y$63 (= y$rc3$next y$rc3$next_rhs_op)))
(assert (= y$im.p1_ctl_2$next_rhs_op (and (not y$im.reset) y$ctl_b)))
(assert (= y$69 (= y$ctl_b1$next y$im.p1_ctl_2$next_rhs_op)))
(assert (= y$ctl_b2$next_rhs_op (and y$ctl_b1 (not y$im.reset))))
(assert (= y$73 (= y$ctl_b2$next y$ctl_b2$next_rhs_op)))
(assert (= y$ctl_b3$next_rhs_op (and y$ctl_b2 (not y$im.reset))))
(assert (= y$77 (= y$ctl_b3$next y$ctl_b3$next_rhs_op)))
(assert (= y$im.p1_a$next_rhs_op (ite y$im.reset y$n0s8 y$a)))
(assert (= y$82 (= y$ra1$next y$im.p1_a$next_rhs_op)))
(assert (= y$ra2$next_rhs_op (ite y$im.reset y$n0s8 y$ra1)))
(assert (= y$86 (= y$ra2$next y$ra2$next_rhs_op)))
(assert (= y$ra3$next_rhs_op (ite y$im.reset y$n0s8 y$ra2)))
(assert (= y$90 (= y$ra3$next y$ra3$next_rhs_op)))
(assert (= y$im.p1_b$next_rhs_op (ite y$im.reset y$n0s8 y$b)))
(assert (= y$95 (= y$rb1$next y$im.p1_b$next_rhs_op)))
(assert (= y$97 (= y$im.p1_ctl_2$next_rhs_op y$im.p1_ctl_2$next)))
(assert (= y$99 (= y$im.p1_a$next_rhs_op y$im.p1_a$next)))
(assert (= y$101 (= y$im.p1_b$next_rhs_op y$im.p1_b$next)))
(assert (= y$103 (= y$im.p1_c$next_rhs_op y$im.p1_c$next)))
(assert (= y$im.p2_ctl_2$next_rhs_op (and y$im.p1_ctl_2 (not y$im.reset))))
(assert (= y$107 (= y$im.p2_ctl_2$next y$im.p2_ctl_2$next_rhs_op)))
(assert (= y$s$22_op (BitWiseAnd_8_8_8 y$im.p1_a y$n1s8)))
(assert (= y$112 (= y$n1s8 y$s$22_op)))
(assert (= y$s$21_op (Add_8_8_8 y$im.p1_a y$im.p1_b)))
(assert (= y$s$25_op (Sub_8_8_8 y$im.p1_a y$im.p1_b)))
(assert (= y$s$28_op (ite y$112 y$s$21_op y$s$25_op)))
(assert (= y$im.p2_m$next_rhs_op (ite y$im.reset y$n0s8 y$s$28_op)))
(assert (= y$121 (= y$im.p2_m$next y$im.p2_m$next_rhs_op)))
(assert (= y$im.p2_c$next_rhs_op (ite y$im.reset y$n0s8 y$im.p1_c)))
(assert (= y$125 (= y$im.p2_c$next y$im.p2_c$next_rhs_op)))
(assert (= y$s$29_op (Sub_8_8_8 y$im.p2_m y$im.p2_c)))
(assert (= y$im.p3_n$next_rhs_op (ite y$im.reset y$n0s8 y$s$29_op)))
(assert (= y$131 (= y$im.p3_n$next y$im.p3_n$next_rhs_op)))
(assert (= y$132 (and y$46 y$50 y$55 y$59 y$63 y$69 y$73 y$77 y$82 y$86 y$90 y$95 y$97 y$99 y$101 y$103 y$107 y$121 y$125 y$131)))
(assert (= y$162 (Extract_1_0_0_8 y$ra3$next)))
(assert (= y$s$31$next_op (Add_8_8_8 y$ra3$next y$rb3$next)))
(assert (= y$s$33$next_op (Sub_8_8_8 y$ra3$next y$rb3$next)))
(assert (= y$sp.m$next_op (ite y$162 y$s$31$next_op y$s$33$next_op)))
(assert (= y$s$30$next_op (Add_8_8_8 y$sp.m$next_op y$rc3$next)))
(assert (= y$s$32$next_op (Sub_8_8_8 y$sp.m$next_op y$rc3$next)))
(assert (= y$s_out$next_op (ite y$ctl_b3$next y$s$30$next_op y$s$32$next_op)))
(assert (= y$176 (= y$im.p3_n$next y$s_out$next_op)))
(assert (= y$177 (= y$prop$next y$176)))
(assert (= y$prop$next (not y$161)))
(assert (= y$193 (not (= y$n0s8 y$s$33$next_op))))
(assert (= y$194 (= y$n0s8 y$rb3$next)))
(assert (= y$195 (= y$n0s8 y$ra3$next)))
(assert (= y$196 (and y$193 y$194 y$195)))
(assert (= y$196 (not y$198)))
(assert (= y$187 (not (= y$n0s8 y$s$33_op))))
(assert (= y$34 (= y$n0s8 y$rb3)))
(assert (= y$28 (= y$n0s8 y$ra3)))
(assert (= y$192 (and y$28 y$34 y$187)))
(assert (= y$192 (not y$197)))
(assert (= y$230 (and y$195 y$162)))
(assert (= y$230 (not y$232)))
(assert (= y$229 (and y$28 y$134)))
(assert (= y$229 (not y$231)))
(assert (= y$238 (and y$prop y$149 y$198 y$197 y$232 y$231 y$132 y$177 y$161)))
(assert y$238)
(assert (not (= y$n0s8 y$n1s8)))
(assert (= (= y$im.p2_c y$rb2) y$312))
(assert y$312)
(assert (= (= y$im.p2_c y$rc2) y$320))
(assert y$320)
(assert (= (= y$im.p2_c y$ra2) y$329))
(assert y$329)
(assert (= y$s$22_op (BitWiseAnd_8_8_8 y$im.p1_a y$n1s8)))
(assert (= y$112 (= y$n1s8 y$s$22_op)))
(assert (= y$8 (= y$n0s8 y$im.p1_a)))
(assert (= y$382 (and y$8 y$112)))
(assert (= y$382 (not y$385)))
(assert y$385)
(assert (= y$s$22$next_op (BitWiseAnd_8_8_8 y$im.p1_a$next y$n1s8)))
(assert (= y$357 (= y$n1s8 y$s$22$next_op)))
(assert (= y$383 (= y$n0s8 y$im.p1_a$next)))
(assert (= y$384 (and y$357 y$383)))
(assert (= y$384 (not y$393)))
(assert y$393)
(assert (distinct y$n0s8 y$n1s8 y$n144s8 y$n240s8 y$n160s8 y$n5s8 y$n252s8 y$n32s8 y$n4s8 y$n248s8 y$n16s8))
(assert (= (= y$im.p2_c y$im.p2_m) y$405))
(assert y$405)
(assert (= y$s$29_op (Sub_8_8_8 y$im.p2_m y$im.p2_c)))
(assert (= (= y$im.p2_c y$s$29_op) y$414))
(assert y$414)
(assert (= y$ctl_b2 (not y$3)))
(assert y$3)
(assert (= y$162 (Extract_1_0_0_8 y$ra3$next)))
(assert (= y$s$33$next_op (Sub_8_8_8 y$ra3$next y$rb3$next)))
(assert (= y$407 (= y$s$33$next_op y$im.p3_n$next)))
(assert (= y$419 (= y$rb3$next y$im.p3_n$next)))
(assert (= y$444 (and y$162 y$407 y$419)))
(assert (= y$444 (not y$448)))
(assert y$448)
(assert (= y$134 (Extract_1_0_0_8 y$ra3)))
(assert (= y$s$33_op (Sub_8_8_8 y$ra3 y$rb3)))
(assert (= y$445 (= y$im.p3_n y$s$33_op)))
(assert (= y$446 (= y$im.p3_n y$rb3)))
(assert (= y$447 (and y$134 y$445 y$446)))
(assert (= y$447 (not y$452)))
(assert y$452)
(assert (distinct y$n0s8 y$n1s8 y$n144s8 y$n240s8 y$n160s8 y$n5s8 y$n252s8 y$n32s8 y$n4s8 y$n248s8 y$n16s8))
(check-sat)
(exit)
